p cnf 48 169
-3 -1 0
-3 2 0
1 -2 3 0
-5 3 0
-5 -4 0
-3 4 5 0
8 -6 0
8 -7 0
6 7 -8 0
-9 -8 0
-9 -7 0
8 7 9 0
11 -9 0
11 -10 0
9 10 -11 0
12 13 0
-12 13 0
-14 13 0
-14 -12 0
-13 12 14 0
15 -14 0
15 8 0
14 -8 -15 0
16 11 0
16 15 0
-11 -15 -16 0
-18 -17 0
-18 -1 0
17 1 18 0
-19 -18 0
-19 -7 0
18 7 19 0
8 20 -21 0
-8 -20 -21 0
8 -20 21 0
-8 20 21 0
22 -19 0
22 21 0
19 -21 -22 0
-23 -16 0
-23 -22 0
16 22 23 0
-8 -14 -24 0
8 14 -24 0
-8 14 24 0
8 -14 24 0
-25 7 0
-25 -12 0
-7 12 25 0
26 -24 0
26 -25 0
24 25 -26 0
-4 20 -27 0
4 -20 -27 0
-4 -20 27 0
4 20 27 0
26 -27 -28 0
-26 27 -28 0
26 27 28 0
-26 -27 28 0
-23 28 -29 0
23 -28 -29 0
-23 -28 29 0
23 28 29 0
-18 27 -30 0
18 -27 -30 0
-18 -27 30 0
18 27 30 0
-31 29 0
-31 30 0
-29 -30 31 0
32 5 0
32 -31 0
-5 31 -32 0
27 13 -33 0
-27 -13 -33 0
27 -13 33 0
-27 13 33 0
-7 -4 -34 0
7 4 -34 0
-7 4 34 0
7 -4 34 0
-35 -20 0
-35 -34 0
20 34 35 0
36 33 0
36 35 0
-33 -35 -36 0
-37 -32 0
-37 -36 0
32 36 37 0
38 25 -39 0
-38 -25 -39 0
38 -25 39 0
-38 25 39 0
-37 -39 -40 0
37 39 -40 0
-37 39 40 0
37 -39 40 0
-20 -2 -41 0
20 2 -41 0
-20 2 41 0
20 -2 41 0
42 12 0
42 -9 0
-12 9 -42 0
3 42 -43 0
-3 -42 -43 0
3 -42 43 0
-3 42 43 0
27 -43 -44 0
-27 43 -44 0
27 43 44 0
-27 -43 44 0
1 -18 -45 0
-1 18 -45 0
1 18 45 0
-1 -18 45 0
-44 45 -46 0
44 -45 -46 0
-44 -45 46 0
44 45 46 0
-41 -46 -47 0
41 46 -47 0
-41 46 47 0
41 -46 47 0
-48 -40 0
-48 -47 0
40 47 48 0
-1 30 -2 0
-34 39 -26 35 5 0
42 -35 41 15 0
36 2 -26 14 0
-41 -42 5 0
-27 -26 -45 1 -30 0
-46 -17 -23 33 0
-30 -14 32 0
-48 -34 20 14 35 0
-9 44 -38 -21 -36 13 0
-37 -25 34 0
-24 -4 -30 13 0
-47 -34 -39 12 0
-41 -43 0
16 -6 -29 11 -48 0
44 10 -37 35 20 0
8 15 -36 34 1 0
20 -28 10 0
47 11 0
20 29 -27 -4 -41 0
35 -30 -26 36 11 0
17 23 -29 21 0
6 -17 -45 0
-39 -2 -26 23 0
-26 -23 0
13 16 -30 45 33 0
-41 17 29 20 36 25 0
30 9 38 -17 -40 0
-4 41 19 0
34 21 -40 -6 25 0
37 27 43 40 0
33 40 37 7 2 0
-31 -34 -44 0
30 38 -25 0
-45 40 0
-24 -31 -43 -10 22 0
-28 29 0
48 -44 19 34 36 0
-41 28 0
48 0
